NAME: random-97-2495
TYPE: TSP
COMMENT: size=97 seed=2495
DIMENSION: 196
EDGE_WEIGHT_TYPE: EUC_2D
NODE_COORD_SECTION
+0 465 39
-0 465 39
+1 487 378
-1 581 239
+2 867 151
-2 268 810
+3 309 148
-3 514 298
+4 787 562
-4 268 538
+5 458 344
-5 512 28
+6 383 677
-6 842 353
+7 981 222
-7 678 923
+8 302 819
-8 58 89
+9 639 866
-9 221 978
+10 113 843
-10 994 607
+11 700 668
-11 835 116
+12 70 779
-12 431 158
+13 789 85
-13 948 45
+14 569 387
-14 954 288
+15 111 744
-15 419 515
+16 228 131
-16 7 738
+17 352 787
-17 407 769
+18 248 922
-18 488 704
+19 676 92
-19 722 268
+20 870 666
-20 122 96
+21 513 735
-21 83 557
+22 274 758
-22 153 577
+23 850 430
-23 562 0
+24 304 762
-24 673 988
+25 15 966
-25 893 592
+26 14 588
-26 321 461
+27 79 259
-27 654 43
+28 974 991
-28 299 810
+29 784 595
-29 559 665
+30 831 520
-30 501 609
+31 176 970
-31 955 444
+32 173 766
-32 479 653
+33 965 487
-33 251 746
+34 863 344
-34 290 472
+35 666 544
-35 921 472
+36 829 757
-36 409 482
+37 862 924
-37 561 651
+38 867 699
-38 718 595
+39 603 472
-39 125 429
+40 39 834
-40 198 121
+41 520 427
-41 492 742
+42 309 449
-42 301 807
+43 522 922
-43 261 633
+44 993 666
-44 794 420
+45 391 599
-45 994 177
+46 890 136
-46 855 326
+47 657 791
-47 55 646
+48 266 692
-48 780 339
+49 459 479
-49 993 361
+50 587 481
-50 996 513
+51 959 938
-51 565 234
+52 229 164
-52 349 776
+53 616 410
-53 994 550
+54 901 601
-54 745 966
+55 955 737
-55 240 306
+56 652 612
-56 375 298
+57 661 306
-57 120 860
+58 551 571
-58 144 759
+59 26 961
-59 346 907
+60 847 466
-60 823 706
+61 268 521
-61 296 659
+62 524 406
-62 133 516
+63 897 857
-63 233 81
+64 291 239
-64 581 288
+65 509 276
-65 410 759
+66 673 595
-66 879 496
+67 121 185
-67 290 367
+68 116 583
-68 458 439
+69 874 595
-69 312 409
+70 619 824
-70 964 424
+71 104 480
-71 280 704
+72 257 678
-72 753 584
+73 527 358
-73 711 774
+74 726 189
-74 783 766
+75 396 814
-75 360 910
+76 420 456
-76 948 710
+77 258 939
-77 131 971
+78 561 971
-78 276 479
+79 383 204
-79 740 468
+80 642 132
-80 414 709
+81 361 444
-81 910 366
+82 421 182
-82 240 954
+83 55 722
-83 221 351
+84 418 35
-84 391 214
+85 228 861
-85 271 671
+86 659 831
-86 597 155
+87 431 459
-87 305 880
+88 241 583
-88 963 285
+89 578 96
-89 758 737
+90 689 551
-90 367 497
+91 191 35
-91 510 415
+92 620 50
-92 178 346
+93 674 990
-93 263 544
+94 368 767
-94 789 215
+95 604 940
-95 56 40
+96 981 875
-96 908 732
+97 818 709
-97 244 996
PRECEDENCE_SECTION
+0 -0
+1 -1
+2 -2
+3 -3
+4 -4
+5 -5
+6 -6
+7 -7
+8 -8
+9 -9
+10 -10
+11 -11
+12 -12
+13 -13
+14 -14
+15 -15
+16 -16
+17 -17
+18 -18
+19 -19
+20 -20
+21 -21
+22 -22
+23 -23
+24 -24
+25 -25
+26 -26
+27 -27
+28 -28
+29 -29
+30 -30
+31 -31
+32 -32
+33 -33
+34 -34
+35 -35
+36 -36
+37 -37
+38 -38
+39 -39
+40 -40
+41 -41
+42 -42
+43 -43
+44 -44
+45 -45
+46 -46
+47 -47
+48 -48
+49 -49
+50 -50
+51 -51
+52 -52
+53 -53
+54 -54
+55 -55
+56 -56
+57 -57
+58 -58
+59 -59
+60 -60
+61 -61
+62 -62
+63 -63
+64 -64
+65 -65
+66 -66
+67 -67
+68 -68
+69 -69
+70 -70
+71 -71
+72 -72
+73 -73
+74 -74
+75 -75
+76 -76
+77 -77
+78 -78
+79 -79
+80 -80
+81 -81
+82 -82
+83 -83
+84 -84
+85 -85
+86 -86
+87 -87
+88 -88
+89 -89
+90 -90
+91 -91
+92 -92
+93 -93
+94 -94
+95 -95
+96 -96
+97 -97
EOF
